%BLOCK lattice_cart
     10.000  0.000  0.000
      0.000 10.000  0.000
      0.000  0.000 10.000
%ENDBLOCK lattice_cart

%BLOCK species_mass
Si 1.0
%ENDBLOCK species_mass

%BLOCK positions_frac
Si   0.0000000   0.0000000   0.0000000
Si   0.5000000   0.0000000   0.0000000
Si   0.0000000   0.5000000   0.0000000
Si   0.5000000   0.5000000   0.0000000
Si   0.0000000   0.0000000   0.5000000
Si   0.5000000   0.0000000   0.5000000
Si   0.0000000   0.5000000   0.5000000
Si   0.5000000   0.5000000   0.5000000
Si   0.2500000   0.2500000   0.0000000
Si   0.7500000   0.2500000   0.0000000
Si   0.2500000   0.7500000   0.0000000
Si   0.7500000   0.7500000   0.0000000
Si   0.2500000   0.2500000   0.5000000
Si   0.7500000   0.2500000   0.5000000
Si   0.2500000   0.7500000   0.5000000
Si   0.7500000   0.7500000   0.5000000
Si   0.2500000   0.0000000   0.2500000
Si   0.7500000   0.0000000   0.2500000
Si   0.2500000   0.5000000   0.2500000
Si   0.7500000   0.5000000   0.2500000
Si   0.2500000   0.0000000   0.7500000
Si   0.7500000   0.0000000   0.7500000
Si   0.2500000   0.5000000   0.7500000
Si   0.7500000   0.5000000   0.7500000
Si   0.0000000   0.2500000   0.2500000
Si   0.5000000   0.2500000   0.2500000
Si   0.0000000   0.7500000   0.2500000
Si   0.5000000   0.7500000   0.2500000
Si   0.0000000   0.2500000   0.7500000
Si   0.5000000   0.2500000   0.7500000
Si   0.0000000   0.7500000   0.7500000
Si   0.5000000   0.7500000   0.7500000
Si   0.1250000   0.1250000   0.1250000
Si   0.6250000   0.1250000   0.1250000
Si   0.1250000   0.6250000   0.1250000
Si   0.6250000   0.6250000   0.1250000
Si   0.1250000   0.1250000   0.6250000
Si   0.6250000   0.1250000   0.6250000
Si   0.1250000   0.6250000   0.6250000
Si   0.6250000   0.6250000   0.6250000
Si   0.1250000   0.3750000   0.3750000
Si   0.6250000   0.3750000   0.3750000
Si   0.1250000   0.8750000   0.3750000
Si   0.6250000   0.8750000   0.3750000
Si   0.1250000   0.3750000   0.8750000
Si   0.6250000   0.3750000   0.8750000
Si   0.1250000   0.8750000   0.8750000
Si   0.6250000   0.8750000   0.8750000
Si   0.3750000   0.1250000   0.3750000
Si   0.8750000   0.1250000   0.3750000
Si   0.3750000   0.6250000   0.3750000
Si   0.8750000   0.6250000   0.3750000
Si   0.3750000   0.1250000   0.8750000
Si   0.8750000   0.1250000   0.8750000
Si   0.3750000   0.6250000   0.8750000
Si   0.8750000   0.6250000   0.8750000
Si   0.3750000   0.3750000   0.1250000
Si   0.8750000   0.3750000   0.1250000
Si   0.3750000   0.8750000   0.1250000
Si   0.8750000   0.8750000   0.1250000
Si   0.3750000   0.3750000   0.6250000
Si   0.8750000   0.3750000   0.6250000
Si   0.3750000   0.8750000   0.6250000
Si   0.8750000   0.8750000   0.6250000
%ENDBLOCK positions_frac
